StudentsNr = 10;
InstructorsNr = 50;
DaysNr = 2;
SlotsPerDay = 60;
AvailabilitySlotsLenght = 60;
RoomNr = 2;
ProgrammNr = 2;
DegreeNr = 1;
RolesNr = 1;
CoursesNr = 3;
InstructorsProgramm = [{2}, {2}, {1}, {1, 2}, {1, 2}, {2}, {1}, {1}, {2}, {1, 2}, {2}, {1}, {1}, {1, 2}, {2}, {2}, {1}, {2}, {2}, {1}, {2}, {1}, {2}, {1, 2}, {2}, {2}, {2}, {2}, {2}, {2}, {1}, {2}, {2}, {2}, {2}, {2}, {2}, {1}, {2}, {1, 2}, {2}, {1}, {1}, {1, 2}, {1}, {2}, {1}, {2}, {1}, {2}];
InstructorRolesPerProgramm = [|{3, 8, 10, 20, 22, 43, 44}|{1, 2, 10, 11, 15, 18, 19, 23, 25, 26, 27, 30, 33, 34, 35, 37, 44, 48, 50}|];
InstructorsAvailability = [|0, 1, |0, 1, |0, 1, |0, 0, |1, 1, |0, 0, |0, 1, |0, 0, |1, 1, |1, 0, |1, 1, |1, 1, |1, 1, |1, 1, |0, 0, |0, 1, |1, 1, |0, 0, |1, 0, |0, 0, |0, 1, |1, 1, |0, 0, |1, 1, |0, 1, |0, 1, |0, 1, |1, 1, |0, 1, |1, 1, |0, 1, |1, 1, |1, 1, |0, 0, |1, 1, |0, 0, |0, 1, |1, 1, |1, 1, |0, 1, |1, 0, |1, 1, |0, 1, |1, 1, |1, 1, |0, 1, |1, 1, |0, 1, |0, 1, |1, 1|];
StudentsProgramm = [1, 1, 1, 2, 1, 1, 1, 2, 2, 1];
StudentsDegree = [1, 1, 1, 1, 1, 1, 1, 1, 1, 1];
StudentsSupervisorId = [7, 20, 3, 37, 22, 22, 7, 33, 37, 47];
StudentsCourseIds = [{1, 3}, {1, 2}, {1, 3}, {2, 3}, {1, 2}, {1, 3}, {1, 3}, {1, 3}, {2, 3}, {1, 2}];
StudentsAvailability = [|0, 0, |1, 0, |0, 0, |1, 1, |1, 1, |0, 1, |1, 1, |1, 1, |1, 0, |1, 1|];
TheoryticalMinCard = [0, 0, 0, 0, 0, 0, 0, 0, 0, 1];
CoursesInstructorIds = [{1, 3, 7, 9, 10, 12, 13, 15, 16, 17, 19, 20, 23, 28, 29, 30, 33, 34, 35, 40, 41, 43, 45, 50}, {2, 4, 12, 15, 16, 18, 19, 23, 24, 25, 26, 27, 30, 33, 36, 38, 41, 43, 45, 46, 48, 49, 50}, {1, 2, 3, 4, 7, 8, 9, 10, 14, 16, 17, 18, 19, 23, 25, 26, 31, 35, 36, 38, 39, 43, 45, 46, 49}];
RolesDemands = [6];
RolesContinuity = [];
ExamLen = [2, 2, 2, 2, 2, 2, 2, 2, 2, 2];
LunchTsMinLen = 0;
LunchStarts = [24..31, 80..99];
SupervisorAvailable = 5;
OptimalLunchLenght = [0, 0];
OptimalStartTs = [1, 0];
OptimalFinishTs = [2, 60];
MinimizeRooms = 200;
RolesSoftContinuity = [|1|1|];
SameDegreeInRoom = 20;
Mergeability = 0;
